experiments/sat_smt/run/sat-l/results/tanya.res
solved=true
solvingTime=47.988330841064453125
nActions=17