experiments/sat_smt/run/sat-l/results/tanya.out
Timesteps: 1
s UNSATISFIABLE
real 0.06
user 0.00
sys 0.00
Timesteps: 2
s UNSATISFIABLE
real 0.07
user 0.01
sys 0.00
Timesteps: 3
s UNSATISFIABLE
real 0.09
user 0.02
sys 0.00
Timesteps: 4
s UNSATISFIABLE
real 0.09
user 0.02
sys 0.00
Timesteps: 5
s UNSATISFIABLE
real 0.11
user 0.05
sys 0.00
Timesteps: 6
s UNSATISFIABLE
real 0.22
user 0.17
sys 0.00
Timesteps: 7
s UNSATISFIABLE
real 0.40
user 0.36
sys 0.00
Timesteps: 8
s UNSATISFIABLE
real 0.75
user 0.70
sys 0.00
Timesteps: 9
s UNSATISFIABLE
real 1.83
user 1.76
sys 0.00
Timesteps: 10
s UNSATISFIABLE
real 2.32
user 2.24
sys 0.00
Timesteps: 11
s UNSATISFIABLE
real 3.13
user 3.06
sys 0.00
Timesteps: 12
s UNSATISFIABLE
real 5.09
user 4.99
sys 0.01
Timesteps: 13
s UNSATISFIABLE
real 5.25
user 5.13
sys 0.02
Timesteps: 14
s UNSATISFIABLE
real 6.43
user 6.31
sys 0.02
Timesteps: 15
s UNSATISFIABLE
real 6.71
user 6.55
sys 0.02
Timesteps: 16
s UNSATISFIABLE
real 8.42
user 8.25
sys 0.02
Timesteps: 17
s SATISFIABLE
real 6.96
user 6.81
sys 0.02
